StringID   Type       x          y          demand     ReadyTime  DueDate    ServiceTime
D0         d              84.050    16.349      0.000      0.000     23.983      0.000
S0         f              84.050    16.349      0.000      0.000     23.983      0.000
S1         f              28.120    78.670      0.000      0.000     23.983      0.000
S2         f              48.440    76.910      0.000      0.000     23.983      0.000
C0         c              53.391    94.128      0.004     16.024     16.526      0.052
C1         c              97.480    80.184      0.016     17.796     18.379      0.058
C2         c              56.579    85.539      0.007     11.128     11.672      0.054
C3         c              90.800    56.999      0.004     15.613     16.139      0.052
C4         c               8.794    12.508      0.002     18.268     18.699      0.051

Q Vehicle fuel tank capacity /114.7500/
C Vehicle load capacity /1.0900/
r fuel consumption rate /0.4180/
g inverse refueling rate /0.0067/
v average Velocity /29.9800/
gv charging speed /148.4500/

--------------------
instance_id /578/
number of clusters /6/
working_startTime (hour) /8.00/
working_endTime (hour) /21.32/
instance_endTime (hour) /23.98/
service_time_type /cargoweight/
demand_type /20_80/
instance_type /RC/
instance x range /[0.0, 100.0]/
instance y range /[0.0, 100.0]/
cs_time_to_depot (hour)/[2.7931325958105524,2.343381780017226]/
